NAME : in_house_8_20
TYPE : TSP
DIMENSION : 8
EDGE_WEIGHT_TYPE : EXPLICIT
EDGE_WEIGHT_FORMAT : UPPER_ROW
COMMENT : INVERSION_SHIFT=7
EDGE_WEIGHT_SECTION
33
62
19
56
50
13
51
11
52
31
31
36
21
49
28
30
37
35
1
11
32
35
6
36
13
40
3
41
